(declare-fun temp421_2 () (_ BitVec 64))
(declare-fun temp421_1 () (_ BitVec 64))
(declare-fun temp421_4 () (_ BitVec 64))
(declare-fun temp421_3 () (_ BitVec 64))
(declare-fun temp421_6 () (_ BitVec 64))
(declare-fun temp421_5 () (_ BitVec 64))
(declare-fun temp421_8 () (_ BitVec 64))
(declare-fun temp421_7 () (_ BitVec 64))
(declare-fun temp421_10 () (_ BitVec 64))
(declare-fun temp421_9 () (_ BitVec 64))
(declare-fun temp421_12 () (_ BitVec 64))
(declare-fun temp421_11 () (_ BitVec 64))
(declare-fun temp421_14 () (_ BitVec 64))
(declare-fun temp421_13 () (_ BitVec 64))
(declare-fun temp421_16 () (_ BitVec 64))
(declare-fun temp421_15 () (_ BitVec 64))
(declare-fun temp421_18 () (_ BitVec 64))
(declare-fun temp421_17 () (_ BitVec 64))
(declare-fun temp421_19 () (_ BitVec 64))
(declare-fun var67321 () (_ BitVec 64))
(declare-fun temp421_20 () (_ BitVec 64))
(declare-fun var790154 () (_ BitVec 64))
(declare-fun temp421_21 () (_ BitVec 64))
(declare-fun var67380 () (_ BitVec 64))
(declare-fun var854859 () (_ BitVec 64))
(declare-fun temp421_22 () (_ BitVec 64))
(declare-fun var920420 () (_ BitVec 64))
(declare-fun var920400 () (_ BitVec 64))
(declare-fun var67382 () (_ BitVec 64))
(declare-fun temp421_23 () (_ BitVec 64))
(declare-fun var67389 () (_ BitVec 64))
(declare-fun temp421_24 () (_ BitVec 64))
(declare-fun var67378 () (_ BitVec 64))
(declare-fun temp421_26 () (_ BitVec 64))
(declare-fun var67391 () (_ BitVec 64))
(declare-fun temp421_27 () (_ BitVec 64))
(declare-fun var67393 () (_ BitVec 64))
(declare-fun temp421_28 () (_ BitVec 64))
(declare-fun var67394 () (_ BitVec 64))
(declare-fun temp421_29 () (_ BitVec 64))
(declare-fun temp421_30 () (_ BitVec 64))
(declare-fun var67395 () (_ BitVec 64))
(declare-fun var67322 () (_ BitVec 64))
(declare-fun var67399 () (_ BitVec 64))
(declare-fun temp421_31 () (_ BitVec 64))
(declare-fun var67400 () (_ BitVec 64))
(declare-fun var67402 () (_ BitVec 64))
(assert (= temp421_2 #x0000000000000000))
(assert (= temp421_1 temp421_2))
(assert (= temp421_4 #x0000000000000000))
(assert (= temp421_3 temp421_4))
(assert (= temp421_6 #x0000000000000000))
(assert (= temp421_5 temp421_6))
(assert (= temp421_8 #x0000000000000000))
(assert (= temp421_7 temp421_8))
(assert (= temp421_10 #x0000000000000000))
(assert (= temp421_9 temp421_10))
(assert (= temp421_12 #x0000000000000000))
(assert (= temp421_11 temp421_12))
(assert (= temp421_14 #x0000000000000000))
(assert (= temp421_13 temp421_14))
(assert (= temp421_16 #x0000000000000000))
(assert (= temp421_15 temp421_16))
(assert (= temp421_18 #x0000000000000000))
(assert (= temp421_17 temp421_18))
(assert (= temp421_19 #x0000000000000000))
(assert (= var67321 temp421_19))
(assert (= temp421_20 #x0000000000000001))
(assert (= var790154 temp421_20))
(assert (= temp421_21 #x0000000000000000))
(assert (= var67380 temp421_21))
(assert (= var854859 var67380))
(assert (= temp421_22 #xffffffffffffffff))
(assert (= var920420 temp421_22))
(assert (= var920400 var920420))
(assert (= var67382 var920400))
(assert (= temp421_23 #x0000000000000000))
(assert (= var67389
   (ite (bvslt var67382 temp421_23) #x0000000000000001 #x0000000000000000)))
(assert (= temp421_24 #x0000000000000001))
(assert (= var67378 (bvadd var67380 temp421_24)))
(assert (= temp421_26 #x0000000000000001))
(assert (= var67391 temp421_26))
(assert (= temp421_27 #x0000000000000001))
(assert (= var67393 (bvand var67391 temp421_27)))
(assert (= temp421_28 #x0000000000000000))
(assert (= var67394 (ite (= var67393 temp421_28) #x0000000000000001 #x0000000000000000)))
(assert (= temp421_29 #x0000000000000000))
(assert (= temp421_30 #x0000000000000016))
(assert (= var67395 (ite (= var67394 #x0000000000000001) temp421_29 temp421_30)))
(assert (= var67322 var67391))
(assert (= var67399 var67395))
(assert (= temp421_31 #x0000000000000000))
(assert (= var67400 (ite (= var67399 temp421_31) #x0000000000000001 #x0000000000000000)))
(assert (= var67402 var67322))


